NAME          DCAP_2_3_3_500_SS478
ROWS
 N  OBJ
 L  CON1
 L  CON2
 L  CON3
 L  CON4
 L  CON5
 L  CON6
 L  CON7
 L  CON8
 L  CON9
 L  CON10
 L  CON11
 L  CON12
 E  CON13
 E  CON14
 E  CON15
 E  CON16
 E  CON17
 E  CON18
 E  CON19
 E  CON20
 E  CON21
COLUMNS
    x[1,1]    OBJ       6.180167      CON1      1.000000    
    x[1,1]    CON7      -1.000000     CON8      -1.000000   
    x[1,1]    CON9      -1.000000   
    x[1,2]    OBJ       6.563535      CON2      1.000000    
    x[1,2]    CON8      -1.000000     CON9      -1.000000   
    x[1,3]    OBJ       7.443064      CON3      1.000000    
    x[1,3]    CON9      -1.000000   
    x[2,1]    OBJ       6.732585      CON4      1.000000    
    x[2,1]    CON10     -1.000000     CON11     -1.000000   
    x[2,1]    CON12     -1.000000   
    x[2,2]    OBJ       5.039546      CON5      1.000000    
    x[2,2]    CON11     -1.000000     CON12     -1.000000   
    x[2,3]    OBJ       6.054841      CON6      1.000000    
    x[2,3]    CON12     -1.000000   
    MARKER    'MARKER'                'INTORG'
    u[1,1]    OBJ       48.076654     CON1      -1.000000   
    u[1,2]    OBJ       20.066487     CON2      -1.000000   
    u[1,3]    OBJ       32.230043     CON3      -1.000000   
    u[2,1]    OBJ       49.996186     CON4      -1.000000   
    u[2,2]    OBJ       49.466655     CON5      -1.000000   
    u[2,3]    OBJ       27.484319     CON6      -1.000000   
    y[1,1,1]  OBJ       7.183471      CON7      0.945205    
    y[1,1,1]  CON13     1.000000    
    y[1,1,2]  OBJ       5.568659      CON8      0.697175    
    y[1,1,2]  CON14     1.000000    
    y[1,1,3]  OBJ       7.816941      CON9      0.571978    
    y[1,1,3]  CON15     1.000000    
    y[1,2,1]  OBJ       9.976082      CON7      0.946261    
    y[1,2,1]  CON16     1.000000    
    y[1,2,2]  OBJ       7.419752      CON8      0.930524    
    y[1,2,2]  CON17     1.000000    
    y[1,2,3]  OBJ       9.679016      CON9      1.032638    
    y[1,2,3]  CON18     1.000000    
    y[1,3,1]  OBJ       5.927646      CON7      0.943847    
    y[1,3,1]  CON19     1.000000    
    y[1,3,2]  OBJ       9.257984      CON8      1.460678    
    y[1,3,2]  CON20     1.000000    
    y[1,3,3]  OBJ       8.673937      CON9      0.902928    
    y[1,3,3]  CON21     1.000000    
    y[2,1,1]  OBJ       6.904268      CON10     0.945205    
    y[2,1,1]  CON13     1.000000    
    y[2,1,2]  OBJ       9.055496      CON11     0.697175    
    y[2,1,2]  CON14     1.000000    
    y[2,1,3]  OBJ       5.726804      CON12     0.571978    
    y[2,1,3]  CON15     1.000000    
    y[2,2,1]  OBJ       6.473677      CON10     0.946261    
    y[2,2,1]  CON16     1.000000    
    y[2,2,2]  OBJ       9.335993      CON11     0.930524    
    y[2,2,2]  CON17     1.000000    
    y[2,2,3]  OBJ       5.280117      CON12     1.032638    
    y[2,2,3]  CON18     1.000000    
    y[2,3,1]  OBJ       5.461497      CON10     0.943847    
    y[2,3,1]  CON19     1.000000    
    y[2,3,2]  OBJ       7.743610      CON11     1.460678    
    y[2,3,2]  CON20     1.000000    
    y[2,3,3]  OBJ       9.305629      CON12     0.902928    
    y[2,3,3]  CON21     1.000000    
    z[1,1]    OBJ       794.732477    CON13     1.000000    
    z[1,2]    OBJ       855.487415    CON14     1.000000    
    z[1,3]    OBJ       718.725085    CON15     1.000000    
    z[2,1]    OBJ       796.705756    CON16     1.000000    
    z[2,2]    OBJ       855.458005    CON17     1.000000    
    z[2,3]    OBJ       669.125441    CON18     1.000000    
    z[3,1]    OBJ       925.333132    CON19     1.000000    
    z[3,2]    OBJ       765.490027    CON20     1.000000    
    z[3,3]    OBJ       993.392503    CON21     1.000000    
    MARKER    'MARKER'                 'INTEND'
RHS
    RHS       CON1      -0.000000     CON2      -0.000000   
    RHS       CON3      -0.000000     CON4      -0.000000   
    RHS       CON5      -0.000000     CON6      -0.000000   
    RHS       CON7      -0.000000     CON8      -0.000000   
    RHS       CON9      -0.000000     CON10     -0.000000   
    RHS       CON11     -0.000000     CON12     -0.000000   
    RHS       CON13     1.000000      CON14     1.000000    
    RHS       CON15     1.000000      CON16     1.000000    
    RHS       CON17     1.000000      CON18     1.000000    
    RHS       CON19     1.000000      CON20     1.000000    
    RHS       CON21     1.000000    
BOUNDS
 BV BOUND     u[1,1]  
 BV BOUND     u[1,2]  
 BV BOUND     u[1,3]  
 BV BOUND     u[2,1]  
 BV BOUND     u[2,2]  
 BV BOUND     u[2,3]  
 BV BOUND     y[1,1,1]
 BV BOUND     y[1,1,2]
 BV BOUND     y[1,1,3]
 BV BOUND     y[1,2,1]
 BV BOUND     y[1,2,2]
 BV BOUND     y[1,2,3]
 BV BOUND     y[1,3,1]
 BV BOUND     y[1,3,2]
 BV BOUND     y[1,3,3]
 BV BOUND     y[2,1,1]
 BV BOUND     y[2,1,2]
 BV BOUND     y[2,1,3]
 BV BOUND     y[2,2,1]
 BV BOUND     y[2,2,2]
 BV BOUND     y[2,2,3]
 BV BOUND     y[2,3,1]
 BV BOUND     y[2,3,2]
 BV BOUND     y[2,3,3]
 BV BOUND     z[1,1]  
 BV BOUND     z[1,2]  
 BV BOUND     z[1,3]  
 BV BOUND     z[2,1]  
 BV BOUND     z[2,2]  
 BV BOUND     z[2,3]  
 BV BOUND     z[3,1]  
 BV BOUND     z[3,2]  
 BV BOUND     z[3,3]  
ENDATA
